c preprocessed version of dimacs_queen7_7, 43 vertices, 366 edges
p td 43 366
0 1
0 19
0 30
0 31
0 10
0 5
0 3
0 8
0 12
0 20
0 14
0 9
0 24
0 18
0 35
1 2
1 7
1 11
1 9
1 13
1 19
3 1
1 17
1 26
1 30
1 32
8 1
1 25
1 31
6 1
10 1
14 1
3 2
8 2
12 2
6 2
10 2
14 2
2 22
2 23
2 13
2 24
2 16
2 34
2 7
2 11
2 19
2 28
2 27
2 36
3 4
3 13
3 22
3 23
3 14
3 15
3 8
3 12
3 20
3 26
3 25
5 4
6 4
10 4
14 4
4 24
4 25
4 36
4 15
4 9
4 13
4 19
4 22
4 21
4 17
4 16
4 33
6 5
10 5
5 17
5 18
5 9
5 13
5 19
5 22
5 21
5 15
5 32
5 34
6 7
6 11
6 15
6 24
6 32
6 25
6 34
6 36
6 10
6 14
8 7
12 7
20 7
10 7
14 7
7 21
7 19
7 26
7 18
7 33
7 11
7 22
7 30
7 29
7 37
8 9
8 19
8 21
8 17
8 28
8 32
8 12
8 20
8 27
8 36
10 9
14 9
9 26
9 27
9 37
9 17
9 32
9 13
9 19
9 22
9 21
9 24
9 18
9 35
10 11
10 17
10 26
10 16
10 27
10 33
10 37
10 14
12 11
20 11
14 11
11 22
11 28
11 25
11 35
11 21
11 23
11 31
11 38
12 13
12 22
12 24
12 30
12 16
12 29
12 34
12 20
12 37
14 13
13 28
13 29
13 38
13 24
13 16
13 34
13 19
13 22
13 21
13 26
13 25
14 15
14 24
14 28
14 18
14 29
14 35
14 38
15 16
15 35
15 17
15 24
15 26
15 28
15 30
15 23
15 32
15 34
17 16
24 16
32 16
16 35
16 34
16 18
16 25
16 27
16 29
16 31
16 33
17 18
17 32
17 24
17 26
17 28
17 30
17 23
17 33
19 18
24 18
26 18
32 18
20 18
18 33
18 25
18 27
18 29
18 31
18 35
20 19
19 30
19 31
19 26
19 33
19 22
19 21
19 28
19 27
19 36
20 21
20 26
20 23
20 31
20 33
20 38
22 21
21 30
21 27
21 23
21 31
21 38
22 23
22 28
22 25
22 35
22 30
22 29
22 37
24 23
26 23
28 23
30 23
23 29
23 36
23 31
23 38
24 25
24 36
24 34
24 26
24 28
24 30
24 35
26 25
28 25
32 25
25 36
25 35
25 27
25 29
25 31
26 27
26 37
26 33
26 28
26 30
28 27
30 27
32 27
27 37
27 29
27 31
27 36
28 29
28 38
28 35
28 30
28 36
30 29
32 29
29 38
29 36
29 31
29 37
30 31
30 37
32 31
31 37
31 38
32 33
32 34
34 33
33 35
33 36
33 37
33 38
34 35
34 36
34 37
34 38
35 36
35 37
35 38
36 37
36 38
37 38
39 14
39 13
39 28
39 29
39 38
39 40
39 41
39 6
39 5
39 15
39 32
39 34
40 19
40 30
40 31
40 41
40 4
40 17
40 16
40 33
41 18
41 23
41 24
41 35
42 39
42 40
42 41
42 1
42 3
42 5
42 13
42 17
42 18
42 21
42 25
42 26
42 27
42 30
42 33
42 34
42 35
42 36
42 37
42 38
